Version identifier: 20.1.0.0 | 2020-11-10 | 9bedb6d68
CPXPARAM_Threads                                 1
CPXPARAM_TimeLimit                               7200
CPXPARAM_MIP_Tolerances_MIPGap                   0
Generic callback                                 0x60
1 of 1 MIP starts provided solutions.
MIP start 'm1' defined initial solution with objective 2178.9578.
Tried aggregator 1 time.
Reduced MIP has 640801 rows, 640801 columns, and 1920800 nonzeros.
Reduced MIP has 800 binaries, 0 generals, 0 SOSs, and 0 indicators.
Presolve time = 0.64 sec. (607.18 ticks)
Probing time = 0.08 sec. (80.04 ticks)
Tried aggregator 1 time.
Reduced MIP has 640801 rows, 640801 columns, and 1920800 nonzeros.
Reduced MIP has 800 binaries, 0 generals, 0 SOSs, and 0 indicators.
Presolve time = 0.62 sec. (596.80 ticks)
Probing time = 0.08 sec. (80.04 ticks)
MIP emphasis: balance optimality and feasibility.
MIP search method: dynamic search.
Parallel mode: none, using 1 thread.
Root relaxation solution time = 0.20 sec. (246.74 ticks)

        Nodes                                         Cuts/
   Node  Left     Objective  IInf  Best Integer    Best Bound    ItCnt     Gap

*     0+    0                         2178.9578     4368.0000           100.46%
      0     0     2404.3585    14     2178.9578     4368.0000        0  100.46%
      0     2     2404.3585    14     2178.9578     2404.3584        0   10.34%
Elapsed time = 225.95 sec. (213466.69 ticks, tree = 0.01 MB, solutions = 1)
*     1     1      integral     0     2183.5431     2404.3584     7451   10.11%
      1     1     2183.5431     0     2183.5431     2404.3584     7451   10.11%
*     2     0      integral     0     2184.0000     2404.3584    12857   10.09%
      2     0     2184.0000     0     2184.0000     2184.0000    12857    0.00%

User cuts applied:  2

Root node processing (before b&c):
  Real time             =  225.94 sec. (213453.36 ticks)
Sequential b&c:
  Real time             =   34.50 sec. (30378.06 ticks)
                          ------------
Total (root+branch&cut) =  260.44 sec. (243831.42 ticks)
@Parameters: 
is_S_cut                                true
is_add_all_yinF                         true
is_start_value                          true
is_usercut                              true
is_visualization                        false
uc_only_rootnode                        false

data                                    Qi
fn                                      data/Qi/instance_800_800.csv
mode                                    ZLP
solver                                  cplex

p                                       10
r                                       10

EPS                                     1.0e-06
EPS_vio                                 1.0e-04
beta                                    0.10
gap                                     0.00
nodelimit                               Inf
timelimit                               7200.00


@PrintInfos
ItCnt: 12857
Current gap: 0.00 %
Termination Status: OPTIMAL
Primal Status: FEASIBLE_POINT
Solve Time: 260.44 sec
Objective Value: 2184.000000
Number of Nodes:      3

CutInfo: [phase] num / time (sec) 
ZLP             [phase1]     0 / 0.00 [rLC]     2 / 8.02 [rUC]     2 / 4.52 [sLC]     0 / 3.36 [sUC]     1 / 2.37 
OldSubmodular   [phase1]     0 / 0.00 [rLC]     0 / 0.00 [rUC]     0 / 0.00 [sLC]     0 / 0.00 [sUC]     0 / 0.00 
NewSubmodular   [phase1]     0 / 0.00 [rLC]     0 / 0.00 [rUC]     0 / 0.00 [sLC]     0 / 0.00 [sUC]     0 / 0.00 
PMP             [phase1]     0 / 0.00 [rLC]     3 / 4.31 [rUC]     2 / 2.58 [sLC]     2 / 2.68 [sUC]     1 / 1.31 
Separation Round: [phase1] 0  [rLC] 3  [rUC] 2  [sLC] 2  [sUC] 1
Root Best Bound 2184.000000
Root Best Integer: 2184.000000
Best Bound: 2184.000000
Best Integer: 2184.000000

